tsp_instances/TSP50/instance127.tsp
NODE_COORD_SECTION
0 192 180
1 132 13
2 144 195
3 196 158
4 178 83
5 33 165
6 72 33
7 193 155
8 33 151
9 68 3
10 172 165
11 200 93
12 188 70
13 63 121
14 184 83
15 53 58
16 181 179
17 186 192
18 33 66
19 55 8
20 64 66
21 153 154
22 186 4
23 171 67
24 14 64
25 193 82
26 180 149
27 42 101
28 0 103
29 45 171
30 71 150
31 96 120
32 41 199
33 26 28
34 69 131
35 19 198
36 10 98
37 107 151
38 65 120
39 132 163
40 169 190
41 40 11
42 136 25
43 55 97
44 32 8
45 90 120
46 151 131
47 4 138
48 38 75
49 90 134
