tsp_instances/TSP50/instance127.opt.tour
TOUR_SECTION
1
4
8
27
11
22
47
5
15
12
26
13
24
23
43
2
7
10
20
42
45
34
25
19
49
16
21
44
28
37
29
48
9
6
36
33
30
31
35
14
39
46
32
50
38
40
3
41
18
17
-1